2025-11-10 18:53:24,438 INFO - Solving the line planning problem with ILP
2025-11-10 18:53:24,439 INFO - Set parameter Username
2025-11-10 18:53:24,439 INFO - Set parameter LicenseID to value 2711114
2025-11-10 18:53:24,440 INFO - Academic license - for non-commercial use only - expires 2026-09-20
2025-11-10 18:53:24,441 INFO - Set parameter TimeLimit to value 86400
2025-11-10 18:53:53,403 INFO - Set parameter LogFile to value "Results\100_percent\budget_500000\stage_1\gurobi.log"
2025-11-10 18:54:06,030 INFO - Gurobi Optimizer version 12.0.3 build v12.0.3rc0 (win64 - Windows 11+.0 (26200.2))
2025-11-10 18:54:06,030 INFO - 
2025-11-10 18:54:06,030 INFO - CPU model: Intel(R) Core(TM) Ultra 7 265K, instruction set [SSE2|AVX|AVX2]
2025-11-10 18:54:06,032 INFO - Thread count: 20 physical cores, 20 logical processors, using up to 20 threads
2025-11-10 18:54:06,032 INFO - 
2025-11-10 18:54:06,032 INFO - Non-default parameters:
2025-11-10 18:54:06,032 INFO - TimeLimit  86400
2025-11-10 18:54:06,032 INFO - 
2025-11-10 18:54:06,033 INFO - Optimize a model with 29203 rows, 2476360 columns and 18009782 nonzeros
2025-11-10 18:54:06,189 INFO - Model fingerprint: 0x61d971f2
2025-11-10 18:54:06,190 INFO - Variable types: 0 continuous, 2476360 integer (2476360 binary)
2025-11-10 18:54:06,233 INFO - Coefficient statistics:
2025-11-10 18:54:06,234 INFO -   Matrix range     [1e+00, 2e+03]
2025-11-10 18:54:06,234 INFO -   Objective range  [1e+00, 1e+00]
2025-11-10 18:54:06,235 INFO -   Bounds range     [1e+00, 1e+00]
2025-11-10 18:54:06,235 INFO -   RHS range        [1e+00, 5e+05]
2025-11-10 18:54:06,470 INFO - Found heuristic solution: objective 1738.0000000
2025-11-10 18:54:11,949 INFO - Presolve removed 380 rows and 241 columns (presolve time = 5s)...
2025-11-10 18:54:17,471 INFO - Presolve removed 380 rows and 241 columns (presolve time = 11s)...
2025-11-10 18:54:21,953 INFO - Presolve removed 380 rows and 241 columns (presolve time = 15s)...
2025-11-10 18:54:26,969 INFO - Presolve removed 380 rows and 241 columns (presolve time = 20s)...
2025-11-10 18:54:31,971 INFO - Presolve removed 380 rows and 241 columns (presolve time = 25s)...
2025-11-10 18:54:37,354 INFO - Presolve removed 490 rows and 241 columns (presolve time = 30s)...
2025-11-10 18:54:41,946 INFO - Presolve removed 490 rows and 241 columns (presolve time = 35s)...
2025-11-10 18:54:46,955 INFO - Presolve removed 490 rows and 241 columns (presolve time = 40s)...
2025-11-10 18:54:51,961 INFO - Presolve removed 490 rows and 241 columns (presolve time = 45s)...
2025-11-10 18:54:57,766 INFO - Presolve removed 490 rows and 241 columns (presolve time = 51s)...
2025-11-10 18:55:01,948 INFO - Presolve removed 490 rows and 241 columns (presolve time = 55s)...
2025-11-10 18:55:12,641 INFO - Presolve removed 490 rows and 241 columns (presolve time = 66s)...
2025-11-10 18:55:14,912 INFO - Presolve removed 490 rows and 241 columns
2025-11-10 18:55:14,912 INFO - Presolve time: 67.96s
2025-11-10 18:55:14,972 INFO - Presolved: 28713 rows, 2476119 columns, 17951990 nonzeros
2025-11-10 18:55:17,152 INFO - Variable types: 0 continuous, 2476119 integer (2476045 binary)
2025-11-10 18:55:22,567 INFO - Deterministic concurrent LP optimizer: primal simplex, dual simplex, and barrier
2025-11-10 18:55:22,567 INFO - Showing barrier log only...
2025-11-10 18:55:22,567 INFO - 
2025-11-10 18:55:23,831 INFO - Root barrier log...
2025-11-10 18:55:23,831 INFO - 
2025-11-10 18:55:29,753 INFO - Elapsed ordering time = 5s
2025-11-10 18:55:34,752 INFO - Elapsed ordering time = 10s
2025-11-10 18:55:39,752 INFO - Elapsed ordering time = 15s
2025-11-10 18:55:42,089 INFO - Ordering time: 17.34s
2025-11-10 18:55:43,875 INFO - 
2025-11-10 18:55:43,875 INFO - Barrier statistics:
2025-11-10 18:55:43,875 INFO -  AA' NZ     : 1.314e+07
2025-11-10 18:55:43,875 INFO -  Factor NZ  : 1.053e+08 (roughly 2.0 GB of memory)
2025-11-10 18:55:43,875 INFO -  Factor Ops : 8.382e+11 (roughly 2 seconds per iteration)
2025-11-10 18:55:43,875 INFO -  Threads    : 18
2025-11-10 18:55:45,426 INFO - 
2025-11-10 18:55:45,426 INFO -                   Objective                Residual
2025-11-10 18:55:45,426 INFO - Iter       Primal          Dual         Primal    Dual     Compl     Time
2025-11-10 18:55:45,518 INFO -    0   1.15596585e+08  1.93994588e+05  8.81e+08 1.00e+00  6.18e+02    99s
2025-11-10 18:55:47,052 INFO -    1   5.06612692e+07  3.75310132e+05  3.87e+08 4.86e-01  2.74e+02   101s
2025-11-10 18:55:48,695 INFO -    2   5.94915263e+06  4.52309860e+05  4.58e+07 7.11e-15  3.29e+01   103s
2025-11-10 18:55:50,700 INFO -    3   4.11618349e+05  2.96847020e+05  3.09e+06 1.33e-14  2.28e+00   105s
2025-11-10 18:55:52,796 INFO -    4   8.46170097e+04  1.65704314e+05  5.80e+05 4.33e-15  4.56e-01   107s
2025-11-10 18:55:55,308 INFO -    5   1.67326015e+04  9.74869665e+04  8.91e+04 3.55e-15  8.66e-02   109s
2025-11-10 18:55:57,762 INFO -    6   4.56277327e+03  6.66039584e+04  1.29e+04 3.55e-15  2.13e-02   112s
2025-11-10 18:55:59,897 INFO -    7   3.09701029e+03  4.14478384e+04  2.94e+03 4.44e-15  9.06e-03   114s
2025-11-10 18:56:01,824 INFO -    8   3.08176061e+03  3.35950650e+04  2.70e+03 2.66e-15  7.15e-03   116s
2025-11-10 18:56:03,457 INFO -    9   3.04451859e+03  2.79271147e+04  1.64e+03 2.22e-15  5.51e-03   117s
2025-11-10 18:56:05,213 INFO -   10   3.05495776e+03  2.48289303e+04  1.58e+03 1.78e-15  4.82e-03   119s
2025-11-10 18:56:07,414 INFO -   11   3.19273141e+03  2.16255999e+04  6.26e+02 1.78e-15  3.86e-03   121s
2025-11-10 18:56:09,362 INFO -   12   3.22486942e+03  1.96537612e+04  6.00e+02 1.33e-15  3.43e-03   123s
2025-11-10 18:56:11,623 INFO -   13   3.32944990e+03  1.82853970e+04  5.16e+02 1.33e-15  3.11e-03   126s
2025-11-10 18:56:14,420 INFO -   14   3.69328064e+03  1.67045357e+04  2.62e+02 1.55e-15  2.66e-03   128s
2025-11-10 18:56:16,792 INFO -   15   3.94453307e+03  1.52020417e+04  2.02e+02 1.33e-15  2.30e-03   131s
2025-11-10 18:56:18,725 INFO -   16   4.00096361e+03  1.41181251e+04  1.92e+02 1.55e-15  2.06e-03   133s
2025-11-10 18:56:20,877 INFO -   17   4.14820559e+03  1.33639258e+04  1.72e+02 1.11e-15  1.88e-03   135s
2025-11-10 18:56:22,694 INFO -   18   4.19511500e+03  1.28745698e+04  1.67e+02 1.55e-15  1.77e-03   137s
2025-11-10 18:56:24,570 INFO -   19   4.27343239e+03  1.25789777e+04  1.61e+02 1.11e-15  1.69e-03   139s
2025-11-10 18:56:26,656 INFO -   20   4.36174982e+03  1.21175794e+04  1.53e+02 1.55e-15  1.58e-03   141s
2025-11-10 18:56:28,794 INFO -   21   4.45043155e+03  1.17812218e+04  1.46e+02 9.99e-16  1.49e-03   143s
2025-11-10 18:56:30,871 INFO -   22   4.47984952e+03  1.16217200e+04  1.44e+02 8.88e-16  1.45e-03   145s
2025-11-10 18:56:33,414 INFO -   23   4.86125784e+03  1.14728835e+04  1.19e+02 1.11e-15  1.34e-03   147s
2025-11-10 18:56:35,957 INFO -   24   5.26909123e+03  1.11232642e+04  9.64e+01 1.11e-15  1.19e-03   150s
2025-11-10 18:56:38,316 INFO -   25   5.33778852e+03  1.08936322e+04  9.29e+01 8.88e-16  1.13e-03   152s
2025-11-10 18:56:41,173 INFO -   26   5.72260286e+03  1.06247062e+04  7.44e+01 8.88e-16  9.93e-04   155s
2025-11-10 18:56:43,626 INFO -   27   5.79509754e+03  1.04248087e+04  7.15e+01 9.99e-16  9.38e-04   158s
2025-11-10 18:56:45,702 INFO -   28   5.86318936e+03  1.03262397e+04  6.89e+01 7.77e-16  9.04e-04   160s
2025-11-10 18:56:47,739 INFO -   29   5.90998114e+03  1.02120578e+04  6.72e+01 1.11e-15  8.71e-04   162s
2025-11-10 18:56:50,344 INFO -   30   6.46745320e+03  9.95994277e+03  4.68e+01 7.77e-16  7.06e-04   164s
2025-11-10 18:56:52,816 INFO -   31   6.82557137e+03  9.74940806e+03  3.65e+01 5.00e-16  5.91e-04   167s
2025-11-10 18:56:55,174 INFO -   32   6.96499694e+03  9.60542353e+03  3.34e+01 8.88e-16  5.33e-04   169s
2025-11-10 18:56:58,918 INFO -   33   7.07260173e+03  9.48706946e+03  3.10e+01 5.27e-16  4.88e-04   173s
2025-11-10 18:57:03,247 INFO -   34   7.43106670e+03  9.37024425e+03  2.31e+01 5.55e-16  3.92e-04   177s
2025-11-10 18:57:07,380 INFO -   35   7.67629557e+03  9.29665668e+03  1.82e+01 8.88e-16  3.27e-04   181s
2025-11-10 18:57:10,982 INFO -   36   7.77741392e+03  9.19539348e+03  1.65e+01 4.72e-16  2.86e-04   185s
2025-11-10 18:57:14,999 INFO -   37   8.01721723e+03  9.12875422e+03  1.23e+01 5.55e-16  2.24e-04   189s
2025-11-10 18:57:18,866 INFO -   38   8.20366366e+03  9.06642930e+03  9.24e+00 5.55e-16  1.74e-04   193s
2025-11-10 18:57:22,687 INFO -   39   8.34525200e+03  9.02160826e+03  7.04e+00 6.66e-16  1.36e-04   197s
2025-11-10 18:57:26,618 INFO -   40   8.47082251e+03  8.98429968e+03  5.16e+00 6.11e-16  1.04e-04   201s
2025-11-10 18:57:29,229 INFO - 
2025-11-10 18:57:29,229 INFO - Barrier performed 40 iterations in 203.15 seconds (243.04 work units)
2025-11-10 18:57:29,229 INFO - Barrier solve interrupted - model solved by another algorithm
2025-11-10 18:57:29,229 INFO - 
2025-11-10 18:57:29,303 INFO - Concurrent spin time: 0.21s
2025-11-10 18:57:29,303 INFO - 
2025-11-10 18:57:29,304 INFO - Solved with primal simplex
2025-11-10 18:57:29,386 INFO - 
2025-11-10 18:57:29,386 INFO - Root simplex log...
2025-11-10 18:57:29,386 INFO - 
2025-11-10 18:57:29,386 INFO - Iteration    Objective       Primal Inf.    Dual Inf.      Time
2025-11-10 18:57:29,386 INFO -  1267849    8.8431897e+03   0.000000e+00   0.000000e+00    203s
2025-11-10 18:57:29,386 INFO - 
2025-11-10 18:57:29,386 INFO - Root relaxation: objective 8.843190e+03, 1267849 iterations, 131.85 seconds (83.78 work units)
2025-11-10 18:57:35,853 INFO - 
2025-11-10 18:57:35,853 INFO -     Nodes    |    Current Node    |     Objective Bounds      |     Work
2025-11-10 18:57:35,853 INFO -  Expl Unexpl |  Obj  Depth IntInf | Incumbent    BestBd   Gap | It/Node Time
2025-11-10 18:57:35,853 INFO - 
2025-11-10 18:57:35,854 INFO -      0     0 8843.18966    0  831 1738.00000 8843.18966   409%     -  209s
2025-11-10 18:57:38,463 INFO - H    0     0                    6019.0000000 8843.18966  46.9%     -  212s
2025-11-10 18:57:38,583 INFO - H    0     0                    6021.0000000 8843.18966  46.9%     -  212s
2025-11-10 18:57:38,707 INFO - H    0     0                    6123.0000000 8843.18966  44.4%     -  212s
2025-11-10 18:57:39,114 INFO - H    0     0                    6425.0000000 8843.18966  37.6%     -  213s
2025-11-10 18:57:39,237 INFO - H    0     0                    6503.0000000 8843.18966  36.0%     -  213s
2025-11-10 18:57:39,615 INFO - H    0     0                    6623.0000000 8843.18966  33.5%     -  213s
2025-11-10 18:57:39,745 INFO - H    0     0                    6629.0000000 8843.18966  33.4%     -  213s
2025-11-10 18:57:40,121 INFO - H    0     0                    6632.0000000 8843.18966  33.3%     -  214s
2025-11-10 18:57:40,259 INFO - H    0     0                    6633.0000000 8843.18966  33.3%     -  214s
2025-11-10 18:57:40,650 INFO - H    0     0                    6634.0000000 8843.18966  33.3%     -  214s
2025-11-10 18:58:26,313 INFO - H    0     0                    6639.0000000 8843.18966  33.2%     -  260s
2025-11-10 18:58:44,571 INFO - H    0     0                    6809.0000000 8843.18966  29.9%     -  278s
2025-11-10 18:58:49,992 INFO - H    0     0                    6864.0000000 8843.18966  28.8%     -  283s
2025-11-10 18:58:53,657 INFO - H    0     0                    6884.0000000 8843.18966  28.5%     -  287s
2025-11-10 19:01:53,507 INFO -      0     0 8492.89011    0 5469 6884.00000 8492.89011  23.4%     -  467s
2025-11-10 19:02:57,346 INFO - H    0     0                    7484.0000000 8492.66576  13.5%     -  531s
2025-11-10 19:03:02,461 INFO - H    0     0                    7485.0000000 8492.66576  13.5%     -  536s
2025-11-10 19:03:03,118 INFO - H    0     0                    7496.0000000 8492.66576  13.3%     -  537s
2025-11-10 19:03:06,539 INFO - H    0     0                    7537.0000000 8492.66576  12.7%     -  540s
2025-11-10 19:03:08,016 INFO - H    0     0                    7572.0000000 8492.66576  12.2%     -  541s
2025-11-10 19:03:21,153 INFO - H    0     0                    7602.0000000 8492.66576  11.7%     -  555s
2025-11-10 19:03:21,289 INFO - H    0     0                    7603.0000000 8492.66576  11.7%     -  555s
2025-11-10 19:03:31,193 INFO - H    0     0                    7620.0000000 8492.66576  11.5%     -  565s
2025-11-10 19:03:31,320 INFO - H    0     0                    7622.0000000 8492.66576  11.4%     -  565s
2025-11-10 19:03:31,445 INFO - H    0     0                    7637.0000000 8492.66576  11.2%     -  565s
2025-11-10 19:03:31,576 INFO - H    0     0                    7641.0000000 8492.66576  11.1%     -  565s
2025-11-10 19:03:40,134 INFO - H    0     0                    7642.0000000 8492.66576  11.1%     -  574s
2025-11-10 19:08:12,038 INFO -      0     0 8402.86768    0 7258 7642.00000 8402.86768  10.0%     -  846s
2025-11-10 19:12:47,542 INFO -      0     0 8383.50320    0 7684 7642.00000 8383.50320  9.70%     - 1121s
2025-11-10 19:14:39,856 INFO -      0     0 8378.63734    0 7863 7642.00000 8378.63734  9.64%     - 1233s
2025-11-10 19:15:41,957 INFO -      0     0 8377.78684    0 7940 7642.00000 8377.78684  9.63%     - 1295s
2025-11-10 19:16:10,657 INFO -      0     0 8377.70042    0 7959 7642.00000 8377.70042  9.63%     - 1324s
2025-11-10 19:16:23,662 INFO -      0     0 8377.69224    0 7985 7642.00000 8377.69224  9.63%     - 1337s
2025-11-10 19:24:44,293 INFO -      0     0 8255.29614    0 9740 7642.00000 8255.29614  8.03%     - 1838s
2025-11-10 19:25:22,751 INFO - H    0     0                    7650.0000000 8255.27619  7.91%     - 1876s
2025-11-10 19:25:33,293 INFO - H    0     0                    7651.0000000 8255.27619  7.90%     - 1887s
2025-11-10 19:36:02,652 INFO -      0     0 8196.07943    0 10833 7651.00000 8196.07943  7.12%     - 2516s
2025-11-10 19:43:37,951 INFO -      0     0 8172.71986    0 11881 7651.00000 8172.71986  6.82%     - 2971s
2025-11-10 19:47:44,720 INFO -      0     0 8166.76945    0 12156 7651.00000 8166.76945  6.74%     - 3218s
2025-11-10 19:50:16,104 INFO -      0     0 8164.78918    0 12416 7651.00000 8164.78918  6.72%     - 3370s
2025-11-10 19:51:45,431 INFO -      0     0 8164.15021    0 12337 7651.00000 8164.15021  6.71%     - 3459s
2025-11-10 19:52:28,540 INFO -      0     0 8163.87447    0 12464 7651.00000 8163.87447  6.70%     - 3502s
2025-11-10 19:52:50,364 INFO -      0     0 8163.81147    0 12513 7651.00000 8163.81147  6.70%     - 3524s
2025-11-10 20:05:47,155 INFO -      0     0 8104.41017    0 13420 7651.00000 8104.41017  5.93%     - 4301s
2025-11-10 20:08:08,351 INFO - H    0     0                    7657.0000000 8104.39912  5.84%     - 4442s
2025-11-10 20:08:12,764 INFO - H    0     0                    7671.0000000 8104.39912  5.65%     - 4446s
2025-11-10 20:08:32,049 INFO - H    0     0                    7675.0000000 8104.39912  5.59%     - 4466s
2025-11-10 20:08:32,167 INFO - H    0     0                    7681.0000000 8104.39912  5.51%     - 4466s
2025-11-10 20:08:58,028 INFO - H    0     0                    7682.0000000 8104.39912  5.50%     - 4491s
2025-11-10 20:08:58,156 INFO - H    0     0                    7685.0000000 8104.39912  5.46%     - 4492s
2025-11-10 20:08:58,289 INFO - H    0     0                    7686.0000000 8104.39912  5.44%     - 4492s
2025-11-10 20:17:33,397 INFO -      0     0 8084.21731    0 13904 7686.00000 8084.21731  5.18%     - 5007s
2025-11-10 20:22:15,130 INFO -      0     0 8078.68923    0 13714 7686.00000 8078.68923  5.11%     - 5289s
2025-11-10 20:25:11,013 INFO -      0     0 8077.11265    0 14231 7686.00000 8077.11265  5.09%     - 5464s
2025-11-10 20:27:30,154 INFO -      0     0 8076.53824    0 14055 7686.00000 8076.53824  5.08%     - 5604s
2025-11-10 20:28:35,698 INFO -      0     0 8076.35965    0 14041 7686.00000 8076.35965  5.08%     - 5669s
2025-11-10 20:41:21,289 INFO -      0     0 8044.41450    0 14418 7686.00000 8044.41450  4.66%     - 6435s
2025-11-10 20:41:27,925 INFO - H    0     0                    7764.0000000 8044.40903  3.61%     - 6441s
2025-11-10 20:41:28,123 INFO - H    0     0                    7836.0000000 8044.40903  2.66%     - 6442s
2025-11-10 20:41:30,014 INFO - H    0     0                    7880.0000000 8044.40903  2.09%     - 6443s
2025-11-10 20:41:30,227 INFO - H    0     0                    7881.0000000 8044.40903  2.07%     - 6444s
2025-11-10 20:41:30,507 INFO - H    0     0                    7899.0000000 8044.40903  1.84%     - 6444s
2025-11-10 20:41:32,958 INFO - H    0     0                    7900.0000000 8044.40903  1.83%     - 6446s
2025-11-10 20:42:18,702 INFO - H    0     0                    7901.0000000 8044.40903  1.82%     - 6492s
2025-11-10 20:45:24,382 INFO - H    0     0                    7908.0000000 8044.40903  1.72%     - 6678s
2025-11-10 20:45:27,032 INFO - H    0     0                    7935.0000000 8044.40903  1.38%     - 6680s
2025-11-10 20:52:13,312 INFO -      0     0 8037.91670    0 14463 7935.00000 8037.91670  1.30%     - 7087s
2025-11-10 20:55:58,660 INFO -      0     0 8035.80124    0 14101 7935.00000 8035.80124  1.27%     - 7312s
2025-11-10 20:58:09,278 INFO -      0     0 8035.38531    0 14075 7935.00000 8035.38531  1.27%     - 7443s
